p cnf 25 105
-8 0
-4 0
-1 0
-13 0
-5 0
8 -8 0
17 -16 0
10 -9 0
25 -24 0
21 -20 0
16 -17 0
4 -4 0
2 -3 0
19 -18 0
14 -15 0
9 -10 0
3 -2 0
1 -1 0
11 -12 0
7 -6 0
24 -25 0
18 -19 0
12 -11 0
13 -13 0
22 -23 0
20 -21 0
15 -14 0
6 -7 0
23 -22 0
5 -5 0
8 17 10 25 0
8 17 10 21 0
8 17 25 21 0
8 10 25 21 0
17 10 25 21 0
16 4 2 19 0
16 4 2 14 0
16 4 19 14 0
16 2 19 14 0
4 2 19 14 0
9 3 1 11 0
9 3 1 7 0
9 3 11 7 0
9 1 11 7 0
3 1 11 7 0
24 18 12 13 0
24 18 12 22 0
24 18 13 22 0
24 12 13 22 0
18 12 13 22 0
20 15 6 23 0
20 15 6 5 0
20 15 23 5 0
20 6 23 5 0
15 6 23 5 0
-8 -17 -10 0
-8 -17 -25 0
-8 -17 -21 0
-8 -10 -25 0
-8 -10 -21 0
-8 -25 -21 0
-17 -10 -25 0
-17 -10 -21 0
-17 -25 -21 0
-10 -25 -21 0
-16 -4 -2 0
-16 -4 -19 0
-16 -4 -14 0
-16 -2 -19 0
-16 -2 -14 0
-16 -19 -14 0
-4 -2 -19 0
-4 -2 -14 0
-4 -19 -14 0
-2 -19 -14 0
-9 -3 -1 0
-9 -3 -11 0
-9 -3 -7 0
-9 -1 -11 0
-9 -1 -7 0
-9 -11 -7 0
-3 -1 -11 0
-3 -1 -7 0
-3 -11 -7 0
-1 -11 -7 0
-24 -18 -12 0
-24 -18 -13 0
-24 -18 -22 0
-24 -12 -13 0
-24 -12 -22 0
-24 -13 -22 0
-18 -12 -13 0
-18 -12 -22 0
-18 -13 -22 0
-12 -13 -22 0
-20 -15 -6 0
-20 -15 -23 0
-20 -15 -5 0
-20 -6 -23 0
-20 -6 -5 0
-20 -23 -5 0
-15 -6 -23 0
-15 -6 -5 0
-15 -23 -5 0
-6 -23 -5 0
